# Instance created by Brandimarte (1993)
193 163 10
0 1
1 2
2 3
3 4
4 5
6 7
7 8
8 9
9 10
10 11
12 13
13 14
14 15
15 16
16 17
18 19
19 20
20 21
21 22
22 23
23 24
24 25
26 27
27 28
28 29
29 30
30 31
31 32
32 33
34 35
35 36
36 37
37 38
38 39
39 40
41 42
42 43
43 44
44 45
46 47
47 48
48 49
49 50
50 51
52 53
53 54
54 55
55 56
56 57
58 59
59 60
60 61
61 62
63 64
64 65
65 66
66 67
68 69
69 70
70 71
71 72
72 73
73 74
75 76
76 77
77 78
78 79
80 81
81 82
82 83
83 84
85 86
86 87
87 88
88 89
89 90
91 92
92 93
93 94
94 95
95 96
96 97
97 98
99 100
100 101
101 102
102 103
103 104
104 105
106 107
107 108
108 109
109 110
111 112
112 113
113 114
114 115
115 116
116 117
117 118
118 119
120 121
121 122
122 123
123 124
124 125
125 126
126 127
128 129
129 130
130 131
131 132
132 133
133 134
135 136
136 137
137 138
138 139
139 140
141 142
142 143
143 144
144 145
145 146
146 147
147 148
149 150
150 151
151 152
152 153
153 154
154 155
156 157
157 158
158 159
159 160
160 161
161 162
162 163
163 164
165 166
166 167
167 168
168 169
169 170
171 172
172 173
173 174
174 175
176 177
177 178
178 179
179 180
180 181
182 183
183 184
184 185
185 186
187 188
188 189
189 190
190 191
191 192
1 9 28
2 8 14 5 10
2 4 22 9 15
2 6 24 4 18
2 2 10 0 10
1 7 18
2 2 12 8 12
2 8 14 5 10
1 4 17
1 6 10
1 0 15
2 9 12 4 11
2 0 22 4 29
1 4 28
2 2 18 6 16
1 7 18
2 6 17 3 19
2 8 14 5 10
1 1 13
2 2 12 8 12
2 7 26 5 26
1 7 22
1 7 13
1 6 10
1 5 23
2 2 10 0 10
2 6 17 3 19
1 4 28
2 9 28 3 20
2 4 16 5 11
1 7 22
1 4 17
2 4 22 9 15
2 7 26 5 26
2 6 17 3 19
1 6 11
2 2 18 6 16
1 0 15
1 4 28
1 7 19
2 5 29 7 16
2 6 24 4 18
2 9 12 4 11
1 6 29
2 8 14 5 10
1 7 22
2 2 10 0 10
2 6 11 4 25
2 9 28 3 20
1 1 13
1 7 18
1 6 10
2 9 28 3 20
2 6 11 4 25
2 2 12 8 12
1 7 19
1 6 11
1 5 23
2 9 28 3 20
2 6 11 4 25
2 8 14 5 10
2 8 12 1 23
2 2 10 0 10
1 4 28
1 7 19
2 8 14 5 10
1 6 29
2 9 28 3 20
1 5 23
2 2 18 6 16
2 0 22 4 29
1 7 18
1 4 17
1 7 22
1 6 10
1 9 28
2 2 18 6 16
1 6 11
1 5 23
1 7 19
1 6 10
2 4 16 5 11
2 7 26 5 26
2 6 24 4 18
1 6 29
2 8 14 5 10
2 4 22 9 15
2 6 11 4 25
2 9 28 3 20
2 9 14 6 26
1 6 10
2 9 12 4 11
2 6 11 4 25
1 6 10
1 4 28
1 7 19
1 1 13
1 4 17
2 2 12 8 12
1 6 10
2 2 10 0 10
2 9 14 6 26
1 9 28
1 6 11
1 0 15
1 6 29
1 7 22
1 1 13
1 0 15
2 2 10 0 10
2 0 22 4 29
1 7 13
1 4 28
1 6 10
2 2 12 8 12
2 9 28 3 20
2 5 29 7 16
1 1 13
1 7 19
1 7 18
1 6 10
1 1 13
2 9 14 6 26
1 5 23
1 6 29
2 9 12 4 11
2 0 22 4 29
1 6 11
2 6 11 4 25
1 5 23
2 9 28 3 20
1 6 29
1 4 17
2 6 24 4 18
2 5 29 7 16
2 4 16 5 11
1 7 19
1 6 10
2 0 22 4 29
1 4 28
2 6 24 4 18
2 2 18 6 16
1 0 15
1 7 13
1 6 10
1 6 11
2 6 17 3 19
1 7 19
2 0 22 4 29
1 6 29
2 9 28 3 20
2 4 22 9 15
1 5 23
2 9 12 4 11
2 5 29 7 16
1 6 10
2 9 28 3 20
2 8 14 5 10
1 9 28
1 1 13
1 7 19
2 6 17 3 19
2 4 16 5 11
1 6 11
1 5 23
2 8 12 1 23
1 6 10
1 9 28
2 9 12 4 11
2 9 14 6 26
2 8 14 5 10
2 8 12 1 23
1 0 15
2 4 22 9 15
1 6 11
1 5 23
1 7 22
1 0 15
2 6 17 3 19
2 2 18 6 16
1 7 13
2 9 14 6 26
1 7 22
2 6 11 4 25
1 7 19
2 2 18 6 16
1 5 23
1 7 22
2 6 11 4 25
1 6 10
2 8 14 5 10
2 2 10 0 10
2 8 12 1 23
